NAME: cum_explosion.tsp
TYPE: TSP
COMMENT: User-generated TSP file
DIMENSION: 100
EDGE_WEIGHT_TYPE: EUC_2D
NODE_COORD_SECTION
1 18.0 57.0
2 3.0 66.0
3 54.0 50.0
4 94.0 84.0
5 87.0 26.0
6 42.0 1.0
7 51.0 58.0
8 87.0 30.0
9 5.0 65.0
10 5.0 99.0
11 83.0 41.0
12 73.0 6.0
13 88.0 21.0
14 82.0 93.0
15 23.0 73.0
16 49.0 75.0
17 24.0 12.0
18 98.0 23.0
19 95.0 26.0
20 72.0 33.0
21 86.0 42.0
22 91.0 31.0
23 82.0 20.0
24 18.0 90.0
25 9.0 12.0
26 21.0 7.0
27 60.0 44.0
28 28.0 60.0
29 69.0 15.0
30 2.0 55.0
31 1.0 6.0
32 73.0 7.0
33 10.0 8.0
34 38.0 1.0
35 22.0 54.0
36 24.0 18.0
37 87.0 95.0
38 91.0 63.0
39 45.0 66.0
40 16.0 16.0
41 96.0 89.0
42 35.0 79.0
43 83.0 79.0
44 15.0 1.0
45 98.0 88.0
46 9.0 90.0
47 45.0 58.0
48 78.0 25.0
49 20.0 90.0
50 10.0 30.0
51 82.0 53.0
52 70.0 65.0
53 12.0 89.0
54 24.0 78.0
55 35.0 30.0
56 42.0 12.0
57 43.0 55.0
58 82.0 53.0
59 58.0 16.0
60 82.0 16.0
61 93.0 75.0
62 62.0 40.0
63 10.0 41.0
64 11.0 8.0
65 49.0 14.0
66 66.0 35.0
67 51.0 91.0
68 91.0 42.0
69 26.0 43.0
70 4.0 9.0
71 33.0 64.0
72 82.0 4.0
73 63.0 64.0
74 53.0 65.0
75 88.0 29.0
76 9.0 39.0
77 29.0 91.0
78 1.0 99.0
79 53.0 81.0
80 37.0 80.0
81 46.0 96.0
82 75.0 42.0
83 90.0 62.0
84 95.0 88.0
85 76.0 93.0
86 8.0 28.0
87 7.0 35.0
88 93.0 11.0
89 40.0 53.0
90 18.0 28.0
91 73.0 9.0
92 35.0 56.0
93 20.0 33.0
94 2.0 81.0
95 60.0 51.0
96 19.0 98.0
97 20.0 18.0
98 91.0 28.0
99 15.0 49.0
100 80.0 33.0
EOF

